NAME: tsp225
TYPE: TOUR
DIMENSION: 225
TOUR_SECTION
1
200
197
7
8
42
41
40
45
48
224
207
49
51
50
57
56
55
54
53
52
58
65
31
32
30
35
33
34
29
28
204
26
25
208
36
37
38
39
24
23
13
14
15
22
21
16
17
20
203
19
18
12
11
10
9
202
206
217
77
78
97
98
99
100
101
102
103
104
220
105
106
107
108
109
96
95
80
81
209
94
221
93
92
91
90
89
88
87
210
84
85
82
83
86
131
211
130
222
129
132
128
165
164
166
167
214
212
168
169
170
171
172
173
182
181
174
180
179
176
177
178
150
149
152
153
148
147
146
145
154
155
156
157
144
143
201
142
141
140
139
138
137
163
162
161
160
159
158
213
136
183
135
134
215
151
127
126
125
79
219
216
76
75
74
73
72
71
70
69
68
67
66
63
64
112
113
114
115
118
119
185
120
184
175
121
122
123
124
186
223
116
117
187
111
110
62
61
60
59
2
47
225
189
27
188
205
190
133
199
191
192
196
193
218
194
195
46
44
43
6
5
4
198
3
EOF
